\ SCIP STATISTICS
\   Problem name     : MILP
\   Variables        : 13 (1 binary, 0 integer, 0 implicit integer, 12 continuous)
\   Constraints      : 12
Minimize
 Obj: +1 C24(6)
Subject to
 (93): +1 C35(6) -1 C38(3) +5 B45(6) = +5
 (79): -1 C122(2) -1 C146(2) = +1
 (87): -5 B45(6) +1 C128(7) <= +0
 (182): -1 C145(2) -1 C130(2) = +1
 (75): +8000000 C30(2) -1 C119(3) = +0
 (60): -1 C24(6) +1 C30(2) +1 C119(3) = +1
 (80): +6 C38(3) -5 C40(3) = +0
 (179): +128 C146(2) +128 C145(2) = +1
 (88): +1 C40(3) +5 B45(6) -1 C128(7) <= +5
 (61): -1 C24(6) -1 C122(2) = +1
 (85): -1 C35(6) -1 C130(2) = +1
 (84): -1 C35(6) +1 C41(2) +1 C128(7) = +4
Bounds
 0 <= B45(6) <= 1
 C119(3) free
 C128(7) free
 C38(3) free
 C122(2) free
 C40(3) free
 C41(2) free
 C130(2) free
 C146(2) free
 C35(6) free
 C30(2) free
 C145(2) free
Binaries
 B45(6)
End
